(set-logic HORN)
(set-info :source |
    Benchmark: C_VC
    Output by Princess (http://www.philipp.ruemmer.org/princess.shtml)
|)
(set-info :status unsat)
;===============================================================================
; Encoding of Heap sorts and operations
;-------------------------------------------------------------------------------
(define-sort Addr() Int)
(declare-datatypes ((AddrRange 0))
                   (((AddrRange (AddrRangeStart Addr) (AddrRangeSize Int)))))

(declare-datatypes ((HeapObject 0) (sl_item 0) (sl 0) (node 0))
                   (((O_Int (getInt Int)) (O_UInt (getUInt Int)) (O_Addr (getAddr Addr)) (O_AddrRange (getAddrRange AddrRange)) (O_sl_item (getsl_item sl_item)) (O_sl (getsl sl)) (O_node (getnode node)) (defObj))
                   ((sl_item (|sl_item::n1| Addr) (|sl_item::n2| Addr)))
                   ((sl (|sl::head| Addr) (|sl::tail| Addr)))
                   ((node (|node::h| Int) (|node::n| Addr)))))
(declare-datatypes ((BatchAllocResHeap 0) (AllocResHeap 0) (Heap 0))
                   (((BatchAllocResHeap   (newBatchHeap Heap) (newAddrRange AddrRange)))
                   ((AllocResHeap   (newHeap Heap) (newAddr Addr)))
                    ((HeapCtor (HeapSize Int)
                               (HeapContents (Array Addr HeapObject))))))
(define-fun nullAddr  () Addr 0)
(define-fun valid     ((h Heap) (p Addr)) Bool
  (and (>= (HeapSize h) p) (> p 0)))
(define-fun emptyHeap () Heap (
  HeapCtor 0 (( as const (Array Addr HeapObject)) defObj)))
(define-fun read ((h Heap) (p Addr)) HeapObject
  (ite (valid h p)
       (select (HeapContents h) p)
       defObj))
(define-fun write ((h Heap) (p Addr) (o HeapObject)) Heap
  (ite (valid h p)
       (HeapCtor (HeapSize h) (store (HeapContents h) p o))
       h))
(define-fun alloc   ((h Heap) (o HeapObject)) AllocResHeap
  (AllocResHeap (HeapCtor (+ 1 (HeapSize h))
                    (store (HeapContents h) (+ 1 (HeapSize h)) o))
          (+ 1 (HeapSize h))))

;===============================================================================
(declare-fun inv_main580_2 (Heap Addr Addr Addr Addr Addr Addr) Bool)
(declare-fun inv_main596_3 (Heap) Bool)
(declare-fun inv_main597_15 (Heap Addr Int) Bool)
(declare-fun inv_main604_17 (Heap Addr Addr Addr Int) Bool)
(declare-fun inv_main612_9_19 (Heap Addr Addr Addr) Bool)
(declare-fun inv_main617_4 (Heap Addr Addr Addr Addr) Bool)
(declare-fun inv_main_15 (Heap Addr Addr Addr) Bool)
(declare-fun inv_main_28 (Heap Addr Addr Addr Addr Addr Addr Addr Addr) Bool)
(declare-fun inv_main_3 (Heap Addr Addr Addr) Bool)
(declare-fun inv_main_33 (Heap Addr Addr Addr Addr Addr Addr Addr Addr) Bool)
(assert (forall ((var0 Heap)) (or (not (= var0 emptyHeap)) (inv_main596_3 var0))))
(assert (forall ((var0 Int) (var1 Addr) (var2 Addr) (var3 Addr) (var4 Heap)) (or (not (inv_main604_17 var4 var3 var2 var1 var0)) (inv_main604_17 var4 var3 var2 var1 var0))))
(assert (forall ((var0 Int) (var1 Int) (var2 Addr) (var3 Addr) (var4 Addr) (var5 Addr) (var6 Addr) (var7 Addr) (var8 node) (var9 Heap) (var10 Heap) (var11 Addr) (var12 Addr) (var13 Addr) (var14 Addr) (var15 Heap)) (or (not (and (inv_main_3 var15 var14 var13 var12) (and (and (= var11 nullAddr) (and (and (and (and (and (and (= var10 (newHeap (alloc var9 (O_node var8)))) (= var7 var6)) (= var5 var4)) (= var3 var2)) (= var11 (newAddr (alloc var9 (O_node var8))))) (not (= var1 0))) (and (and (and (= var9 (write var15 var12 (O_node (node 1 (|node::n| (getnode (read var15 var12))))))) (= var6 var14)) (= var4 var13)) (= var2 var12)))) (= var0 1)))) (inv_main604_17 var10 var7 var11 var3 var0))))
(assert (forall ((var0 Addr) (var1 Addr) (var2 Addr) (var3 Heap) (var4 Int) (var5 Addr) (var6 Addr) (var7 Addr) (var8 Heap)) (or (not (and (inv_main_15 var8 var7 var6 var5) (and (and (not (= var4 2)) (and (and (and (and (= var3 var8) (= var2 var7)) (= var1 var6)) (= var0 var5)) (= var4 (|node::h| (getnode (read var8 var5)))))) (not (= var5 nullAddr))))) (inv_main612_9_19 var3 var2 var1 var0))))
(assert (forall ((var0 Int) (var1 Addr) (var2 Addr) (var3 Addr) (var4 Addr) (var5 node) (var6 Heap) (var7 Addr) (var8 Addr) (var9 Addr) (var10 Heap) (var11 Addr) (var12 Addr) (var13 Addr) (var14 Addr) (var15 Addr) (var16 Addr) (var17 Addr) (var18 Heap) (var19 Heap) (var20 Addr) (var21 Addr) (var22 Addr) (var23 Heap)) (or (not (and (inv_main_3 var23 var22 var21 var20) (and (and (and (and (and (and (= var19 var18) (= var17 var16)) (= var15 var14)) (= var13 var12)) (= var11 (|node::n| (getnode (read var18 var12))))) (and (and (and (= var18 (write var10 var9 (O_node (node (|node::h| (getnode (read var10 var9))) var8)))) (= var16 var7)) (= var14 var8)) (= var12 var9))) (and (not (= var8 nullAddr)) (and (and (and (and (and (and (= var10 (newHeap (alloc var6 (O_node var5)))) (= var7 var4)) (= var3 var2)) (= var9 var1)) (= var8 (newAddr (alloc var6 (O_node var5))))) (not (= var0 0))) (and (and (and (= var6 (write var23 var20 (O_node (node 1 (|node::n| (getnode (read var23 var20))))))) (= var4 var22)) (= var2 var21)) (= var1 var20))))))) (inv_main_3 var19 var17 var15 var11))))
(assert (forall ((var0 Addr) (var1 Heap) (var2 node) (var3 Heap) (var4 Addr) (var5 Heap)) (or (not (and (inv_main596_3 var5) (and (and (not (= var4 nullAddr)) (and (= var3 (newHeap (alloc var5 (O_node var2)))) (= var4 (newAddr (alloc var5 (O_node var2)))))) (= var1 (write var3 var4 (O_node (node 2 (|node::n| (getnode (read var3 var4)))))))))) (inv_main_3 var1 var4 var0 var4))))
(assert (forall ((var0 Addr) (var1 Addr) (var2 Addr) (var3 Addr) (var4 Addr) (var5 Addr) (var6 Addr) (var7 Addr) (var8 Heap) (var9 Addr) (var10 Addr) (var11 Addr) (var12 Addr) (var13 Addr) (var14 Addr) (var15 Addr) (var16 Addr) (var17 Heap) (var18 Addr) (var19 Addr) (var20 Addr) (var21 Addr) (var22 Addr) (var23 Addr) (var24 Addr) (var25 Addr) (var26 Addr) (var27 Heap) (var28 Int) (var29 Addr) (var30 Addr) (var31 Addr) (var32 Addr) (var33 Addr) (var34 Addr) (var35 Addr) (var36 Addr) (var37 Addr) (var38 sl_item) (var39 Heap) (var40 Addr) (var41 Addr) (var42 Addr) (var43 Addr) (var44 Addr) (var45 Addr) (var46 Addr) (var47 Addr) (var48 Addr) (var49 Addr) (var50 Addr) (var51 Addr) (var52 Addr) (var53 Addr) (var54 Addr) (var55 Addr) (var56 Addr) (var57 Heap) (var58 Heap) (var59 Int) (var60 Addr) (var61 Addr) (var62 Addr) (var63 Addr) (var64 Addr) (var65 Addr) (var66 Addr) (var67 Addr) (var68 Heap)) (or (not (and (inv_main_33 var68 var67 var66 var65 var64 var63 var62 var61 var60) (and (= var59 0) (and (and (and (and (and (and (and (and (and (and (and (and (= var58 var57) (= var56 var55)) (= var54 var53)) (= var52 var51)) (= var50 var49)) (= var48 var47)) (= var46 var45)) (= var44 var43)) (= var42 var41)) (= var40 (|sl_item::n1| (getsl_item (read var57 var45))))) (and (and (and (and (and (and (and (and (and (and (= var57 (newHeap (alloc var39 (O_sl_item var38)))) (= var55 var37)) (= var53 var36)) (= var51 var35)) (= var49 var34)) (= var47 var33)) (= var45 var32)) (= var43 var31)) (= var30 var29)) (= var41 (newAddr (alloc var39 (O_sl_item var38))))) (and (and (= var28 0) (and (and (and (and (and (and (and (and (and (= var27 var68) (= var26 var67)) (= var25 var66)) (= var24 var65)) (= var23 var64)) (= var22 var63)) (= var21 var62)) (= var20 var61)) (= var19 var60)) (= var18 (|sl_item::n1| (getsl_item (read var68 var62)))))) (and (and (and (and (and (and (and (and (and (= var39 var27) (= var37 var26)) (= var36 var25)) (= var35 var24)) (= var34 var23)) (= var33 var22)) (= var32 var21)) (= var31 var20)) (= var29 var19)) (or (and (not (= var18 (|sl_item::n2| (getsl_item (read var27 var20))))) (= var28 1)) (and (= var18 (|sl_item::n2| (getsl_item (read var27 var20)))) (= var28 0))))))) (and (and (and (and (and (and (and (and (= var17 (write var58 var42 (O_sl_item (sl_item var40 (|sl_item::n2| (getsl_item (read var58 var42))))))) (= var16 var56)) (= var15 var54)) (= var14 var52)) (= var13 var50)) (= var12 var48)) (= var11 var46)) (= var10 var44)) (= var9 var42))) (and (and (and (and (and (and (and (and (= var8 (write var17 var11 (O_sl_item (sl_item var9 (|sl_item::n2| (getsl_item (read var17 var11))))))) (= var7 var16)) (= var6 var15)) (= var5 var14)) (= var4 var13)) (= var3 var12)) (= var2 var11)) (= var1 var10)) (= var0 var9)))))) (inv_main617_4 var8 var7 var6 var5 var4))))
(assert (forall ((var0 Addr) (var1 Addr) (var2 Addr) (var3 Addr) (var4 Addr) (var5 Addr) (var6 Addr) (var7 Addr) (var8 Heap) (var9 Addr) (var10 Addr) (var11 Addr) (var12 Addr) (var13 Addr) (var14 Addr) (var15 Addr) (var16 Addr) (var17 Heap) (var18 Addr) (var19 Addr) (var20 Addr) (var21 Addr) (var22 Addr) (var23 Addr) (var24 Addr) (var25 Addr) (var26 Addr) (var27 Heap) (var28 Int) (var29 Int) (var30 Addr) (var31 Addr) (var32 Addr) (var33 Addr) (var34 Addr) (var35 Addr) (var36 Addr) (var37 Addr) (var38 Addr) (var39 sl_item) (var40 Heap) (var41 Addr) (var42 Addr) (var43 Addr) (var44 Addr) (var45 Addr) (var46 Addr) (var47 Addr) (var48 Addr) (var49 Addr) (var50 Addr) (var51 Addr) (var52 Addr) (var53 Addr) (var54 Addr) (var55 Addr) (var56 Addr) (var57 Addr) (var58 Heap) (var59 Heap) (var60 Int) (var61 Addr) (var62 Addr) (var63 Addr) (var64 Addr) (var65 Addr) (var66 Addr) (var67 Addr) (var68 Addr) (var69 Heap)) (or (not (and (inv_main_33 var69 var68 var67 var66 var65 var64 var63 var62 var61) (and (= var60 0) (and (and (and (and (and (and (and (and (and (and (and (and (= var59 var58) (= var57 var56)) (= var55 var54)) (= var53 var52)) (= var51 var50)) (= var49 var48)) (= var47 var46)) (= var45 var44)) (= var43 var42)) (= var41 (|sl_item::n1| (getsl_item (read var58 var46))))) (and (and (and (and (and (and (and (and (and (and (= var58 (newHeap (alloc var40 (O_sl_item var39)))) (= var56 var38)) (= var54 var37)) (= var52 var36)) (= var50 var35)) (= var48 var34)) (= var46 var33)) (= var44 var32)) (= var31 var30)) (= var42 (newAddr (alloc var40 (O_sl_item var39))))) (and (= var29 0) (and (and (not (= var28 0)) (and (and (and (and (and (and (and (and (and (= var27 var69) (= var26 var68)) (= var25 var67)) (= var24 var66)) (= var23 var65)) (= var22 var64)) (= var21 var63)) (= var20 var62)) (= var19 var61)) (= var18 (|sl_item::n1| (getsl_item (read var69 var63)))))) (and (and (and (and (and (and (and (and (and (= var40 var27) (= var38 var26)) (= var37 var25)) (= var36 var24)) (= var35 var23)) (= var34 var22)) (= var33 var21)) (= var32 var20)) (= var30 var19)) (or (and (not (= var18 (|sl_item::n2| (getsl_item (read var27 var20))))) (= var28 1)) (and (= var18 (|sl_item::n2| (getsl_item (read var27 var20)))) (= var28 0)))))))) (and (and (and (and (and (and (and (and (= var17 (write var59 var43 (O_sl_item (sl_item var41 (|sl_item::n2| (getsl_item (read var59 var43))))))) (= var16 var57)) (= var15 var55)) (= var14 var53)) (= var13 var51)) (= var12 var49)) (= var11 var47)) (= var10 var45)) (= var9 var43))) (and (and (and (and (and (and (and (and (= var8 (write var17 var11 (O_sl_item (sl_item var9 (|sl_item::n2| (getsl_item (read var17 var11))))))) (= var7 var16)) (= var6 var15)) (= var5 var14)) (= var4 var13)) (= var3 var12)) (= var2 var11)) (= var1 var10)) (= var0 var9)))))) (inv_main617_4 var8 var7 var6 var5 var4))))
(assert (forall ((var0 Addr) (var1 Addr) (var2 Addr) (var3 Addr) (var4 Addr) (var5 Heap) (var6 Addr) (var7 Addr) (var8 Addr) (var9 Addr) (var10 Addr) (var11 Addr) (var12 Addr) (var13 Addr) (var14 Heap) (var15 Addr) (var16 Addr) (var17 Addr) (var18 Addr) (var19 Addr) (var20 Addr) (var21 Addr) (var22 Addr) (var23 Heap) (var24 Addr) (var25 Addr) (var26 Addr) (var27 Addr) (var28 Addr) (var29 Addr) (var30 Addr) (var31 Addr) (var32 Addr) (var33 Heap) (var34 Int) (var35 Addr) (var36 Addr) (var37 Addr) (var38 Addr) (var39 Addr) (var40 Addr) (var41 Addr) (var42 Addr) (var43 Addr) (var44 sl_item) (var45 Heap) (var46 Addr) (var47 Addr) (var48 Addr) (var49 Addr) (var50 Addr) (var51 Addr) (var52 Addr) (var53 Addr) (var54 Addr) (var55 Addr) (var56 Addr) (var57 Addr) (var58 Addr) (var59 Addr) (var60 Addr) (var61 Addr) (var62 Addr) (var63 Heap) (var64 Heap) (var65 Int) (var66 Addr) (var67 Addr) (var68 Addr) (var69 Addr) (var70 Addr) (var71 Addr) (var72 Addr) (var73 Addr) (var74 Addr) (var75 Addr) (var76 Addr) (var77 Addr) (var78 Addr) (var79 Addr) (var80 Addr) (var81 Addr) (var82 Addr) (var83 Heap) (var84 Heap) (var85 Addr) (var86 Addr) (var87 Addr) (var88 Addr) (var89 Addr) (var90 Addr) (var91 Addr) (var92 Addr) (var93 Heap)) (or (not (and (inv_main_33 var93 var92 var91 var90 var89 var88 var87 var86 var85) (and (and (and (and (and (and (and (and (and (and (and (and (= var84 var83) (= var82 var81)) (= var80 var79)) (= var78 var77)) (= var76 var75)) (= var74 var73)) (= var72 var71)) (= var70 var69)) (= var68 var67)) (= var66 (|sl_item::n2| (getsl_item (read var83 var69))))) (and (not (= var65 0)) (and (and (and (and (and (and (and (and (and (and (and (and (= var64 var63) (= var62 var61)) (= var60 var59)) (= var58 var57)) (= var56 var55)) (= var54 var53)) (= var52 var51)) (= var50 var49)) (= var48 var47)) (= var46 (|sl_item::n1| (getsl_item (read var63 var51))))) (and (and (and (and (and (and (and (and (and (and (= var63 (newHeap (alloc var45 (O_sl_item var44)))) (= var61 var43)) (= var59 var42)) (= var57 var41)) (= var55 var40)) (= var53 var39)) (= var51 var38)) (= var49 var37)) (= var36 var35)) (= var47 (newAddr (alloc var45 (O_sl_item var44))))) (and (and (= var34 0) (and (and (and (and (and (and (and (and (and (= var33 var93) (= var32 var92)) (= var31 var91)) (= var30 var90)) (= var29 var89)) (= var28 var88)) (= var27 var87)) (= var26 var86)) (= var25 var85)) (= var24 (|sl_item::n1| (getsl_item (read var93 var87)))))) (and (and (and (and (and (and (and (and (and (= var45 var33) (= var43 var32)) (= var42 var31)) (= var41 var30)) (= var40 var29)) (= var39 var28)) (= var38 var27)) (= var37 var26)) (= var35 var25)) (or (and (not (= var24 (|sl_item::n2| (getsl_item (read var33 var26))))) (= var34 1)) (and (= var24 (|sl_item::n2| (getsl_item (read var33 var26)))) (= var34 0))))))) (and (and (and (and (and (and (and (and (= var23 (write var64 var48 (O_sl_item (sl_item var46 (|sl_item::n2| (getsl_item (read var64 var48))))))) (= var22 var62)) (= var21 var60)) (= var20 var58)) (= var19 var56)) (= var18 var54)) (= var17 var52)) (= var16 var50)) (= var15 var48))) (and (and (and (and (and (and (and (and (= var83 (write var23 var17 (O_sl_item (sl_item var15 (|sl_item::n2| (getsl_item (read var23 var17))))))) (= var81 var22)) (= var79 var21)) (= var77 var20)) (= var75 var19)) (= var73 var18)) (= var71 var17)) (= var69 var16)) (= var67 var15))))) (and (and (and (and (and (and (and (and (= var14 (write var84 var68 (O_sl_item (sl_item (|sl_item::n1| (getsl_item (read var84 var68))) var66)))) (= var13 var82)) (= var12 var80)) (= var11 var78)) (= var10 var76)) (= var9 var74)) (= var8 var72)) (= var7 var70)) (= var6 var68))) (and (and (and (and (and (= var5 (write var14 var7 (O_sl_item (sl_item (|sl_item::n1| (getsl_item (read var14 var7))) var6)))) (= var4 var13)) (= var3 var12)) (= var2 var11)) (= var1 var10)) (= var0 var9))))) (inv_main617_4 var5 var4 var3 var2 var1))))
(assert (forall ((var0 Addr) (var1 Addr) (var2 Addr) (var3 Addr) (var4 Addr) (var5 Heap) (var6 Addr) (var7 Addr) (var8 Addr) (var9 Addr) (var10 Addr) (var11 Addr) (var12 Addr) (var13 Addr) (var14 Heap) (var15 Addr) (var16 Addr) (var17 Addr) (var18 Addr) (var19 Addr) (var20 Addr) (var21 Addr) (var22 Addr) (var23 Heap) (var24 Addr) (var25 Addr) (var26 Addr) (var27 Addr) (var28 Addr) (var29 Addr) (var30 Addr) (var31 Addr) (var32 Addr) (var33 Heap) (var34 Int) (var35 Int) (var36 Addr) (var37 Addr) (var38 Addr) (var39 Addr) (var40 Addr) (var41 Addr) (var42 Addr) (var43 Addr) (var44 Addr) (var45 sl_item) (var46 Heap) (var47 Addr) (var48 Addr) (var49 Addr) (var50 Addr) (var51 Addr) (var52 Addr) (var53 Addr) (var54 Addr) (var55 Addr) (var56 Addr) (var57 Addr) (var58 Addr) (var59 Addr) (var60 Addr) (var61 Addr) (var62 Addr) (var63 Addr) (var64 Heap) (var65 Heap) (var66 Int) (var67 Addr) (var68 Addr) (var69 Addr) (var70 Addr) (var71 Addr) (var72 Addr) (var73 Addr) (var74 Addr) (var75 Addr) (var76 Addr) (var77 Addr) (var78 Addr) (var79 Addr) (var80 Addr) (var81 Addr) (var82 Addr) (var83 Addr) (var84 Heap) (var85 Heap) (var86 Addr) (var87 Addr) (var88 Addr) (var89 Addr) (var90 Addr) (var91 Addr) (var92 Addr) (var93 Addr) (var94 Heap)) (or (not (and (inv_main_33 var94 var93 var92 var91 var90 var89 var88 var87 var86) (and (and (and (and (and (and (and (and (and (and (and (and (= var85 var84) (= var83 var82)) (= var81 var80)) (= var79 var78)) (= var77 var76)) (= var75 var74)) (= var73 var72)) (= var71 var70)) (= var69 var68)) (= var67 (|sl_item::n2| (getsl_item (read var84 var70))))) (and (not (= var66 0)) (and (and (and (and (and (and (and (and (and (and (and (and (= var65 var64) (= var63 var62)) (= var61 var60)) (= var59 var58)) (= var57 var56)) (= var55 var54)) (= var53 var52)) (= var51 var50)) (= var49 var48)) (= var47 (|sl_item::n1| (getsl_item (read var64 var52))))) (and (and (and (and (and (and (and (and (and (and (= var64 (newHeap (alloc var46 (O_sl_item var45)))) (= var62 var44)) (= var60 var43)) (= var58 var42)) (= var56 var41)) (= var54 var40)) (= var52 var39)) (= var50 var38)) (= var37 var36)) (= var48 (newAddr (alloc var46 (O_sl_item var45))))) (and (= var35 0) (and (and (not (= var34 0)) (and (and (and (and (and (and (and (and (and (= var33 var94) (= var32 var93)) (= var31 var92)) (= var30 var91)) (= var29 var90)) (= var28 var89)) (= var27 var88)) (= var26 var87)) (= var25 var86)) (= var24 (|sl_item::n1| (getsl_item (read var94 var88)))))) (and (and (and (and (and (and (and (and (and (= var46 var33) (= var44 var32)) (= var43 var31)) (= var42 var30)) (= var41 var29)) (= var40 var28)) (= var39 var27)) (= var38 var26)) (= var36 var25)) (or (and (not (= var24 (|sl_item::n2| (getsl_item (read var33 var26))))) (= var34 1)) (and (= var24 (|sl_item::n2| (getsl_item (read var33 var26)))) (= var34 0)))))))) (and (and (and (and (and (and (and (and (= var23 (write var65 var49 (O_sl_item (sl_item var47 (|sl_item::n2| (getsl_item (read var65 var49))))))) (= var22 var63)) (= var21 var61)) (= var20 var59)) (= var19 var57)) (= var18 var55)) (= var17 var53)) (= var16 var51)) (= var15 var49))) (and (and (and (and (and (and (and (and (= var84 (write var23 var17 (O_sl_item (sl_item var15 (|sl_item::n2| (getsl_item (read var23 var17))))))) (= var82 var22)) (= var80 var21)) (= var78 var20)) (= var76 var19)) (= var74 var18)) (= var72 var17)) (= var70 var16)) (= var68 var15))))) (and (and (and (and (and (and (and (and (= var14 (write var85 var69 (O_sl_item (sl_item (|sl_item::n1| (getsl_item (read var85 var69))) var67)))) (= var13 var83)) (= var12 var81)) (= var11 var79)) (= var10 var77)) (= var9 var75)) (= var8 var73)) (= var7 var71)) (= var6 var69))) (and (and (and (and (and (= var5 (write var14 var7 (O_sl_item (sl_item (|sl_item::n1| (getsl_item (read var14 var7))) var6)))) (= var4 var13)) (= var3 var12)) (= var2 var11)) (= var1 var10)) (= var0 var9))))) (inv_main617_4 var5 var4 var3 var2 var1))))
(assert (forall ((var0 Addr) (var1 Addr) (var2 Addr) (var3 Addr) (var4 Heap) (var5 sl) (var6 Addr) (var7 Addr) (var8 Addr) (var9 Addr) (var10 Addr) (var11 Addr) (var12 Addr) (var13 Addr) (var14 Addr) (var15 sl_item) (var16 Heap) (var17 Heap) (var18 Addr) (var19 Addr) (var20 Addr) (var21 Addr) (var22 Addr) (var23 Addr) (var24 Addr) (var25 Addr) (var26 Addr) (var27 sl_item) (var28 Heap) (var29 Heap) (var30 Addr) (var31 Addr) (var32 Addr) (var33 Addr) (var34 Addr) (var35 Heap) (var36 Addr) (var37 Addr) (var38 Addr) (var39 Addr) (var40 Addr) (var41 Addr) (var42 Addr) (var43 Addr) (var44 Addr) (var45 Heap) (var46 Heap) (var47 Addr) (var48 Addr) (var49 Addr) (var50 Addr) (var51 Addr) (var52 Addr) (var53 Addr) (var54 Addr) (var55 Addr) (var56 Heap) (var57 Heap) (var58 Addr) (var59 Addr) (var60 Addr) (var61 Heap)) (or (not (and (inv_main_15 var61 var60 var59 var58) (and (and (and (and (and (and (and (and (and (= var57 (write var56 (|sl::tail| (getsl (read var56 var55))) (O_sl_item (sl_item nullAddr (|sl_item::n2| (getsl_item (read var56 (|sl::tail| (getsl (read var56 var55)))))))))) (= var54 var53)) (= var52 var51)) (= var50 var49)) (= var48 var55)) (= var47 nullAddr)) (and (and (and (and (and (and (and (and (= var46 var45) (= var44 var43)) (= var42 var41)) (= var40 var39)) (= var38 var37)) (= var36 (|sl::tail| (getsl (read var45 var37))))) (and (and (and (and (and (= var35 (write var46 (|sl::head| (getsl (read var46 var38))) (O_sl_item (sl_item var36 (|sl_item::n2| (getsl_item (read var46 (|sl::head| (getsl (read var46 var38)))))))))) (= var34 var44)) (= var33 var42)) (= var32 var40)) (= var31 var38)) (= var30 var36))) (and (and (and (and (and (and (and (= var29 (newHeap (alloc var28 (O_sl_item var27)))) (= var26 var25)) (= var24 var23)) (= var22 var21)) (= var20 var19)) (= var18 (newAddr (alloc var28 (O_sl_item var27))))) (and (and (and (and (and (and (= var17 (newHeap (alloc var16 (O_sl_item var15)))) (= var14 var13)) (= var12 var11)) (= var10 var9)) (= var8 var7)) (= var6 (newAddr (alloc var16 (O_sl_item var15))))) (and (and (and (and (= var16 (newHeap (alloc var61 (O_sl var5)))) (= var13 var60)) (= var11 var59)) (= var9 var58)) (= var7 (newAddr (alloc var61 (O_sl var5))))))) (and (and (and (and (= var28 (write var17 var8 (O_sl (sl var6 (|sl::tail| (getsl (read var17 var8))))))) (= var25 var14)) (= var23 var12)) (= var21 var10)) (= var19 var8)))) (and (and (and (and (= var45 (write var29 var20 (O_sl (sl (|sl::head| (getsl (read var29 var20))) var18)))) (= var43 var26)) (= var41 var24)) (= var39 var22)) (= var37 var20)))) (and (and (and (and (= var56 (write var35 (|sl::head| (getsl (read var35 var31))) (O_sl_item (sl_item (|sl_item::n1| (getsl_item (read var35 (|sl::head| (getsl (read var35 var31)))))) var30)))) (= var53 var34)) (= var51 var33)) (= var49 var32)) (= var55 var31))) (and (and (and (and (= var4 (write var57 (|sl::tail| (getsl (read var57 var48))) (O_sl_item (sl_item (|sl_item::n1| (getsl_item (read var57 (|sl::tail| (getsl (read var57 var48)))))) var47)))) (= var3 var54)) (= var2 var52)) (= var1 var50)) (= var0 var48))) (= var58 nullAddr)))) (inv_main617_4 var4 var3 var2 var1 var0))))
(assert (forall ((var0 Int) (var1 Addr) (var2 Heap)) (or (not (inv_main597_15 var2 var1 var0)) (inv_main597_15 var2 var1 var0))))
(assert (forall ((var0 Int) (var1 node) (var2 Heap) (var3 Addr) (var4 Heap)) (or (not (and (inv_main596_3 var4) (and (and (= var3 nullAddr) (and (= var2 (newHeap (alloc var4 (O_node var1)))) (= var3 (newAddr (alloc var4 (O_node var1)))))) (= var0 1)))) (inv_main597_15 var2 var3 var0))))
(assert (forall ((var0 Addr) (var1 Addr) (var2 Addr) (var3 Addr) (var4 Addr) (var5 Addr) (var6 Addr) (var7 Addr) (var8 Heap) (var9 Addr) (var10 Addr) (var11 Addr) (var12 Addr) (var13 Addr) (var14 Addr) (var15 Addr) (var16 Addr) (var17 Addr) (var18 Heap) (var19 Int) (var20 Addr) (var21 Addr) (var22 Addr) (var23 Addr) (var24 Addr) (var25 Addr) (var26 Addr) (var27 Addr) (var28 Heap)) (or (not (and (inv_main_28 var28 var27 var26 var25 var24 var23 var22 var21 var20) (and (and (= var19 0) (and (and (and (and (and (and (and (and (and (= var18 var28) (= var17 var27)) (= var16 var26)) (= var15 var25)) (= var14 var24)) (= var13 var23)) (= var12 var22)) (= var11 var21)) (= var10 var20)) (= var9 (|sl_item::n2| (getsl_item (read var28 var21)))))) (and (and (and (and (and (and (and (and (and (= var8 var18) (= var7 var17)) (= var6 var16)) (= var5 var15)) (= var4 var14)) (= var3 var13)) (= var2 var12)) (= var1 var11)) (= var0 var10)) (or (and (not (= var9 (|sl::tail| (getsl (read var18 var13))))) (= var19 1)) (and (= var9 (|sl::tail| (getsl (read var18 var13)))) (= var19 0))))))) (inv_main_33 var8 var7 var6 var5 var4 var3 var1 var1 var0))))
(assert (forall ((var0 Addr) (var1 Addr) (var2 Addr) (var3 Addr) (var4 Addr) (var5 Addr) (var6 Addr) (var7 Addr) (var8 Heap) (var9 Addr) (var10 Addr) (var11 Addr) (var12 Addr) (var13 Addr) (var14 Addr) (var15 Addr) (var16 Addr) (var17 Addr) (var18 Heap) (var19 Int) (var20 Int) (var21 Addr) (var22 Addr) (var23 Addr) (var24 Addr) (var25 Addr) (var26 Addr) (var27 Addr) (var28 Addr) (var29 Heap)) (or (not (and (inv_main_28 var29 var28 var27 var26 var25 var24 var23 var22 var21) (and (= var20 0) (and (and (not (= var19 0)) (and (and (and (and (and (and (and (and (and (= var18 var29) (= var17 var28)) (= var16 var27)) (= var15 var26)) (= var14 var25)) (= var13 var24)) (= var12 var23)) (= var11 var22)) (= var10 var21)) (= var9 (|sl_item::n2| (getsl_item (read var29 var22)))))) (and (and (and (and (and (and (and (and (and (= var8 var18) (= var7 var17)) (= var6 var16)) (= var5 var15)) (= var4 var14)) (= var3 var13)) (= var2 var12)) (= var1 var11)) (= var0 var10)) (or (and (not (= var9 (|sl::tail| (getsl (read var18 var13))))) (= var19 1)) (and (= var9 (|sl::tail| (getsl (read var18 var13)))) (= var19 0)))))))) (inv_main_33 var8 var7 var6 var5 var4 var3 var1 var1 var0))))
(assert (forall ((var0 Addr) (var1 Addr) (var2 Addr) (var3 Addr) (var4 Addr) (var5 Addr) (var6 Addr) (var7 Addr) (var8 Addr) (var9 Heap) (var10 Int) (var11 Int) (var12 Addr) (var13 Addr) (var14 Addr) (var15 Addr) (var16 Addr) (var17 Addr) (var18 Addr) (var19 Addr) (var20 Addr) (var21 Addr) (var22 Addr) (var23 Addr) (var24 Addr) (var25 Addr) (var26 Addr) (var27 Addr) (var28 Addr) (var29 Heap) (var30 Heap) (var31 Addr) (var32 Addr) (var33 Addr) (var34 Addr) (var35 Addr) (var36 Addr) (var37 Addr) (var38 Addr) (var39 Heap)) (or (not (and (inv_main_33 var39 var38 var37 var36 var35 var34 var33 var32 var31) (and (and (and (and (and (and (and (and (and (and (= var30 var29) (= var28 var27)) (= var26 var25)) (= var24 var23)) (= var22 var21)) (= var20 var19)) (= var18 var17)) (= var16 var15)) (= var14 var13)) (= var12 (|sl_item::n1| (getsl_item (read var29 var17))))) (and (not (= var11 0)) (and (and (not (= var10 0)) (and (and (and (and (and (and (and (and (and (= var9 var39) (= var8 var38)) (= var7 var37)) (= var6 var36)) (= var5 var35)) (= var4 var34)) (= var3 var33)) (= var2 var32)) (= var1 var31)) (= var0 (|sl_item::n1| (getsl_item (read var39 var33)))))) (and (and (and (and (and (and (and (and (and (= var29 var9) (= var27 var8)) (= var25 var7)) (= var23 var6)) (= var21 var5)) (= var19 var4)) (= var17 var3)) (= var15 var2)) (= var13 var1)) (or (and (not (= var0 (|sl_item::n2| (getsl_item (read var9 var2))))) (= var10 1)) (and (= var0 (|sl_item::n2| (getsl_item (read var9 var2)))) (= var10 0))))))))) (inv_main_33 var30 var28 var26 var24 var22 var20 var12 var16 var14))))
(assert (forall ((var0 Addr) (var1 Addr) (var2 Addr) (var3 Heap) (var4 Addr) (var5 Addr) (var6 Addr) (var7 Heap) (var8 Int) (var9 Addr) (var10 Addr) (var11 Addr) (var12 Heap)) (or (not (and (inv_main_3 var12 var11 var10 var9) (and (and (= var8 0) (and (and (and (= var7 (write var12 var9 (O_node (node 2 (|node::n| (getnode (read var12 var9))))))) (= var6 var11)) (= var5 var10)) (= var4 var9))) (and (and (and (= var3 (write var7 var4 (O_node (node (|node::h| (getnode (read var7 var4))) 0)))) (= var2 var6)) (= var1 var5)) (= var0 var4))))) (inv_main_15 var3 var2 var1 var2))))
(assert (forall ((var0 Int) (var1 Addr) (var2 Addr) (var3 Addr) (var4 Addr) (var5 Addr) (var6 Addr) (var7 Addr) (var8 Heap) (var9 Heap) (var10 Addr) (var11 Addr) (var12 Addr) (var13 Heap)) (or (not (and (inv_main_15 var13 var12 var11 var10) (and (and (and (and (and (= var9 var8) (= var7 var6)) (= var5 var4)) (= var3 var2)) (= var1 (|node::n| (getnode (read var8 var2))))) (and (and (= var0 2) (and (and (and (and (= var8 var13) (= var6 var12)) (= var4 var11)) (= var2 var10)) (= var0 (|node::h| (getnode (read var13 var10)))))) (not (= var10 nullAddr)))))) (inv_main_15 var9 var7 var5 var1))))
(assert (forall ((var0 Heap) (var1 Addr) (var2 Addr) (var3 Addr) (var4 Addr) (var5 Addr) (var6 Addr) (var7 Heap) (var8 Addr) (var9 Addr) (var10 Addr) (var11 Addr) (var12 Addr) (var13 Addr) (var14 Addr) (var15 Addr) (var16 Addr) (var17 Addr) (var18 Addr) (var19 Addr) (var20 Addr) (var21 Addr) (var22 Heap) (var23 Heap) (var24 Addr) (var25 Addr) (var26 Addr) (var27 Addr) (var28 Addr) (var29 Addr) (var30 Heap)) (or (not (and (inv_main580_2 var30 var29 var28 var27 var26 var25 var24) (and (and (and (and (and (and (and (and (and (and (= var23 var22) (= var21 var20)) (= var19 var18)) (= var17 var16)) (= var15 var14)) (= var13 var12)) (= var11 var10)) (= var9 (|sl_item::n1| (getsl_item (read var22 (|sl::head| (getsl (read var22 var12)))))))) (and (and (and (and (and (and (and (and (= var22 var30) (= var20 var29)) (= var18 var28)) (= var16 var27)) (= var14 var26)) (= var12 var25)) (= var8 var24)) (= var10 (|sl::head| (getsl (read var30 var25))))) (not (= (|sl::head| (getsl (read var30 var25))) nullAddr)))) (and (and (and (and (and (and (= var7 (write var23 var13 (O_sl (sl var9 (|sl::tail| (getsl (read var23 var13))))))) (= var6 var21)) (= var5 var19)) (= var4 var17)) (= var3 var15)) (= var2 var13)) (= var1 var11))) (= var0 (write var7 var1 defObj))))) (inv_main580_2 var0 var6 var5 var4 var3 var2 var1))))
(assert (forall ((var0 Addr) (var1 Int) (var2 Addr) (var3 Addr) (var4 Addr) (var5 Addr) (var6 Heap)) (or (not (and (inv_main617_4 var6 var5 var4 var3 var2) (= var1 0))) (inv_main580_2 var6 var5 var4 var3 var2 var2 var0))))
(assert (forall ((var0 Addr) (var1 Addr) (var2 Addr) (var3 Addr) (var4 Addr) (var5 Addr) (var6 Addr) (var7 Addr) (var8 Addr) (var9 Heap) (var10 Int) (var11 Int) (var12 Addr) (var13 Addr) (var14 Addr) (var15 Addr) (var16 Addr) (var17 Addr) (var18 Addr) (var19 Addr) (var20 Addr) (var21 Addr) (var22 Addr) (var23 Addr) (var24 Addr) (var25 Addr) (var26 Addr) (var27 Addr) (var28 Addr) (var29 Heap) (var30 Heap) (var31 Addr) (var32 Addr) (var33 Addr) (var34 Addr) (var35 Addr) (var36 Addr) (var37 Addr) (var38 Addr) (var39 Heap)) (or (not (and (inv_main_28 var39 var38 var37 var36 var35 var34 var33 var32 var31) (and (and (and (and (and (and (and (and (and (and (= var30 var29) (= var28 var27)) (= var26 var25)) (= var24 var23)) (= var22 var21)) (= var20 var19)) (= var18 var17)) (= var16 var15)) (= var14 var13)) (= var12 (|sl_item::n2| (getsl_item (read var29 var15))))) (and (not (= var11 0)) (and (and (not (= var10 0)) (and (and (and (and (and (and (and (and (and (= var9 var39) (= var8 var38)) (= var7 var37)) (= var6 var36)) (= var5 var35)) (= var4 var34)) (= var3 var33)) (= var2 var32)) (= var1 var31)) (= var0 (|sl_item::n2| (getsl_item (read var39 var32)))))) (and (and (and (and (and (and (and (and (and (= var29 var9) (= var27 var8)) (= var25 var7)) (= var23 var6)) (= var21 var5)) (= var19 var4)) (= var17 var3)) (= var15 var2)) (= var13 var1)) (or (and (not (= var0 (|sl::tail| (getsl (read var9 var4))))) (= var10 1)) (and (= var0 (|sl::tail| (getsl (read var9 var4)))) (= var10 0))))))))) (inv_main_28 var30 var28 var26 var24 var22 var20 var18 var12 var14))))
(assert (forall ((var0 Int) (var1 Addr) (var2 Addr) (var3 Addr) (var4 Addr) (var5 Addr) (var6 Addr) (var7 Addr) (var8 Addr) (var9 Addr) (var10 Addr) (var11 Addr) (var12 Addr) (var13 Heap) (var14 Addr) (var15 Addr) (var16 Addr) (var17 Addr) (var18 Heap)) (or (not (and (inv_main617_4 var18 var17 var16 var15 var14) (and (and (and (and (and (and (and (and (and (and (= var13 var18) (= var12 var17)) (= var11 var16)) (= var10 var15)) (= var9 var14)) (= var8 var14)) (= var7 var6)) (= var5 var4)) (= var3 var2)) (= var1 (|sl::head| (getsl (read var18 var14))))) (not (= var0 0))))) (inv_main_28 var13 var12 var11 var10 var9 var8 var7 var1 var3))))
(assert (forall ((var0 Addr) (var1 Addr) (var2 Addr) (var3 Heap)) (not (inv_main612_9_19 var3 var2 var1 var0))))
(check-sat)
